 &control
  calculation = 'scf'
  restart_mode = 'from_scratch'
  prefix = 'ZG-si'
  pseudo_dir = './'
  outdir = './out'
/
&system
  ibrav = 0
  nat =  128
  ntyp =    1
  ecutwfc =  120.00
/
&electrons
  diagonalization = 'david'
  mixing_mode= 'plain'
  mixing_beta = 0.70
  conv_thr =   0.1D-06
/
ATOMIC_SPECIES
   Si   28.085 Si.pz-hgh.UPF
K_POINTS automatic
   7   7   7   0   0   0
CELL_PARAMETERS (angstrom)
     10.76308300     10.76308300      0.00000000
      0.00000000     10.76308300     10.76308300
     10.76308300      0.00000000     10.76308300
ATOMIC_POSITIONS (angstrom)
   Si       0.05498770      0.01611884     -0.00746422
   Si       2.78817838      2.73576739      0.18657661
   Si       5.53081284      5.44290287      0.00994350
   Si       8.15752706      8.20827466     -0.08878640
   Si       0.07200074      2.63133072      2.81972476
   Si       2.66778344      5.26753630      2.68212289
   Si       5.29762633      8.06001105      2.71308782
   Si       8.07322246     10.71144697      2.73797729
   Si      -0.07478780      5.19070835      5.44998085
   Si       2.71352758      8.08487763      5.29274492
   Si       5.23542699     10.70255189      5.38991234
   Si       8.00980738     13.48604187      5.34069189
   Si       0.03567833      8.00533219      8.01206209
   Si       2.60233485     10.77662324      8.13411746
   Si       5.38275097     13.40532898      7.98593570
   Si       8.08295612     16.11059596      8.08406669
   Si       2.68990644      0.07291347      2.71717327
   Si       5.42617091      2.65255217      2.71474404
   Si       8.02705513      5.32635497      2.64311865
   Si      10.80977526      8.12003819      2.67387250
   Si       2.76956280      2.64542109      5.40983367
   Si       5.40872344      5.46998636      5.42019997
   Si       8.06392641      8.06982678      5.32741756
   Si      10.80404060     10.71641056      5.42415877
   Si       2.78854901      5.35234793      8.06561148
   Si       5.41272607      8.21169879      8.03260944
   Si       7.99071367     10.71699750      8.01226141
   Si      10.82286787     13.42419821      8.07899725
   Si       2.76374348      8.05804031     10.71994742
   Si       5.29751774     10.84445634     10.64549174
   Si       8.03437458     13.42189109     10.68001934
   Si      10.88555544     16.13330525     10.69405100
   Si       5.46756896      0.07995517      5.39167791
   Si       8.02201499      2.74507413      5.34442493
   Si      10.82098255      5.31303607      5.39475675
   Si      13.43471359      7.83620331      5.42350091
   Si       5.52526549      2.73817514      8.18286449
   Si       8.09062283      5.54045637      8.21928093
   Si      10.63902607      8.03473454      8.05400231
   Si      13.48960182     10.74004177      7.91963696
   Si       5.35954844      5.49284230     10.72286567
   Si       7.95811872      8.10125640     10.89296539
   Si      10.65779233     10.81421651     10.70065921
   Si      13.49461031     13.38100263     10.66021376
   Si       5.35225938      8.13055436     13.45319487
   Si       8.21161547     10.74277338     13.45460540
   Si      10.74772470     13.57303102     13.35762596
   Si      13.36036102     16.21519003     13.34669039
   Si       8.14035917      0.05691704      8.10794189
   Si      10.68326822      2.71521804      8.07132174
   Si      13.47202834      5.29037143      8.13199515
   Si      16.07664877      7.99525046      8.11763501
   Si       8.09705547      2.56916811     10.93883947
   Si      10.76659401      5.34741618     10.75427417
   Si      13.43134638      8.14534510     10.64608058
   Si      16.11773103     10.70496450     10.79367590
   Si       8.04340555      5.44279289     13.49443208
   Si      10.78467306      7.99556733     13.32699472
   Si      13.42648070     10.79363677     13.40596407
   Si      16.08853385     13.46397482     13.56232330
   Si       8.04527457      8.11689179     16.10465451
   Si      10.70665694     10.75272949     16.17494929
   Si      13.37321430     13.55191372     16.27787146
   Si      16.11784482     16.13539533     16.19786316
   Si       1.41990143      1.35029057      1.46524086
   Si       4.07895345      4.01536477      1.29483840
   Si       6.80607320      6.88288314      1.36822446
   Si       9.51682488      9.52477082      1.31076287
   Si       1.44338709      4.00741583      4.14724000
   Si       3.96791672      6.63084621      4.00715281
   Si       6.55168191      9.47401949      3.99104030
   Si       9.38374709     12.06727352      4.09058155
   Si       1.31064348      6.65663639      6.60686661
   Si       3.92766148      9.46186842      6.77820282
   Si       6.58162257     11.98499829      6.66308540
   Si       9.36363569     14.67814639      6.82654486
   Si       1.32257779      9.30751800      9.41349177
   Si       4.01334971     12.22782210      9.41138152
   Si       6.71339459     14.71906115      9.43634976
   Si       9.46602471     17.48485479      9.40669041
   Si       4.15808883      1.41404979      4.01014418
   Si       6.71546776      4.04120654      4.01698290
   Si       9.51585315      6.69434627      4.08698084
   Si      12.22211458      9.31327466      4.02888180
   Si       4.08510211      3.96488958      6.78698488
   Si       6.73552371      6.76656673      6.75362622
   Si       9.41247168      9.39211485      6.71850419
   Si      12.14859485     12.12626302      6.71349221
   Si       4.07048707      6.70745265      9.18467730
   Si       6.74792411      9.48386123      9.40750303
   Si       9.36837270     12.06898222      9.32867374
   Si      12.14262117     14.78318205      9.40559466
   Si       4.08246525      9.50064976     12.08509216
   Si       6.80202128     12.07830282     12.09738201
   Si       9.36153342     14.92243954     11.99972454
   Si      12.11783056     17.58154432     12.01970161
   Si       6.80158278      1.44330586      6.68010727
   Si       9.37175568      4.03667357      6.80013937
   Si      12.09460749      6.57441194      6.83805458
   Si      14.81901404      9.43182359      6.59504836
   Si       6.87981434      4.13697808      9.54506080
   Si       9.41568539      6.77570466      9.58435966
   Si      11.98540037      9.47177412      9.30030557
   Si      14.78083317     12.08589807      9.26108434
   Si       6.59733039      6.78877677     12.15843580
   Si       9.47898457      9.43649311     12.08940223
   Si      12.20365367     12.13411204     12.03540003
   Si      14.78475121     14.75644033     12.12047610
   Si       6.75485759      9.43595946     14.73764598
   Si       9.47858472     12.15983421     14.85167574
   Si      12.16430133     14.78885488     14.77044683
   Si      14.83543950     17.43551344     14.72865499
   Si       9.44226361      1.42034507      9.42544269
   Si      12.15390063      3.99895969      9.44116580
   Si      14.69860439      6.66949070      9.49811356
   Si      17.48602013      9.44620192      9.40011574
   Si       9.45471092      4.03214656     12.21830255
   Si      12.16798576      6.71934277     12.16136125
   Si      14.81081349      9.36831345     12.09520928
   Si      17.38071275     12.13145286     12.15722603
   Si       9.44203076      6.68862247     14.93181028
   Si      12.01596126      9.47866071     14.81520503
   Si      14.64588049     12.15212583     14.87573840
   Si      17.38373738     14.79623421     14.82613206
   Si       9.34063318      9.40875486     17.44684793
   Si      12.03049542     12.00770760     17.49419862
   Si      14.79385096     14.75227240     17.51708147
   Si      17.48458268     17.45656689     17.47075907
