 &control
  calculation = 'scf'
  restart_mode = 'from_scratch'
  prefix = 'equil-si'
  pseudo_dir = './'
  outdir = './out'
/
&system
  ibrav = 0
  nat =  128
  ntyp =    1
  ecutwfc =  60.00
  occupations = 'fixed'
  smearing = 'gaussian'
  degauss =   0.0D+00
/
&electrons
  diagonalization = 'david'
  mixing_mode= 'plain'
  mixing_beta = 0.70
  conv_thr =   0.1D-06
/
ATOMIC_SPECIES
   Si   28.085 Si.pz-hgh.UPF
K_POINTS automatic
   3   3   3   0   0   0
CELL_PARAMETERS (angstrom)
     10.76308300     10.76308300      0.00000000
      0.00000000     10.76308300     10.76308300
     10.76308300      0.00000000     10.76308300
ATOMIC_POSITIONS (angstrom)
   Si    0.00000000   0.00000000   0.00000000
   Si    2.69077075   2.69077075   0.00000000
   Si    5.38154150   5.38154150   0.00000000
   Si    8.07231225   8.07231225   0.00000000
   Si    0.00000000   2.69077075   2.69077075
   Si    2.69077075   5.38154150   2.69077075
   Si    5.38154150   8.07231225   2.69077075
   Si    8.07231225  10.76308300   2.69077075
   Si    0.00000000   5.38154150   5.38154150
   Si    2.69077075   8.07231225   5.38154150
   Si    5.38154150  10.76308300   5.38154150
   Si    8.07231225  13.45385375   5.38154150
   Si    0.00000000   8.07231225   8.07231225
   Si    2.69077075  10.76308300   8.07231225
   Si    5.38154150  13.45385375   8.07231225
   Si    8.07231225  16.14462450   8.07231225
   Si    2.69077075   0.00000000   2.69077075
   Si    5.38154150   2.69077075   2.69077075
   Si    8.07231225   5.38154150   2.69077075
   Si   10.76308300   8.07231225   2.69077075
   Si    2.69077075   2.69077075   5.38154150
   Si    5.38154150   5.38154150   5.38154150
   Si    8.07231225   8.07231225   5.38154150
   Si   10.76308300  10.76308300   5.38154150
   Si    2.69077075   5.38154150   8.07231225
   Si    5.38154150   8.07231225   8.07231225
   Si    8.07231225  10.76308300   8.07231225
   Si   10.76308300  13.45385375   8.07231225
   Si    2.69077075   8.07231225  10.76308300
   Si    5.38154150  10.76308300  10.76308300
   Si    8.07231225  13.45385375  10.76308300
   Si   10.76308300  16.14462450  10.76308300
   Si    5.38154150   0.00000000   5.38154150
   Si    8.07231225   2.69077075   5.38154150
   Si   10.76308300   5.38154150   5.38154150
   Si   13.45385375   8.07231225   5.38154150
   Si    5.38154150   2.69077075   8.07231225
   Si    8.07231225   5.38154150   8.07231225
   Si   10.76308300   8.07231225   8.07231225
   Si   13.45385375  10.76308300   8.07231225
   Si    5.38154150   5.38154150  10.76308300
   Si    8.07231225   8.07231225  10.76308300
   Si   10.76308300  10.76308300  10.76308300
   Si   13.45385375  13.45385375  10.76308300
   Si    5.38154150   8.07231225  13.45385375
   Si    8.07231225  10.76308300  13.45385375
   Si   10.76308300  13.45385375  13.45385375
   Si   13.45385375  16.14462450  13.45385375
   Si    8.07231225   0.00000000   8.07231225
   Si   10.76308300   2.69077075   8.07231225
   Si   13.45385375   5.38154150   8.07231225
   Si   16.14462450   8.07231225   8.07231225
   Si    8.07231225   2.69077075  10.76308300
   Si   10.76308300   5.38154150  10.76308300
   Si   13.45385375   8.07231225  10.76308300
   Si   16.14462450  10.76308300  10.76308300
   Si    8.07231225   5.38154150  13.45385375
   Si   10.76308300   8.07231225  13.45385375
   Si   13.45385375  10.76308300  13.45385375
   Si   16.14462450  13.45385375  13.45385375
   Si    8.07231225   8.07231225  16.14462450
   Si   10.76308300  10.76308300  16.14462450
   Si   13.45385375  13.45385375  16.14462450
   Si   16.14462450  16.14462450  16.14462450
   Si    1.34538538   1.34538538   1.34538538
   Si    4.03615613   4.03615613   1.34538538
   Si    6.72692688   6.72692688   1.34538538
   Si    9.41769763   9.41769763   1.34538538
   Si    1.34538538   4.03615613   4.03615613
   Si    4.03615613   6.72692688   4.03615613
   Si    6.72692688   9.41769763   4.03615613
   Si    9.41769763  12.10846838   4.03615613
   Si    1.34538538   6.72692688   6.72692688
   Si    4.03615613   9.41769763   6.72692688
   Si    6.72692688  12.10846838   6.72692688
   Si    9.41769763  14.79923913   6.72692688
   Si    1.34538538   9.41769763   9.41769763
   Si    4.03615613  12.10846838   9.41769763
   Si    6.72692688  14.79923913   9.41769763
   Si    9.41769763  17.49000988   9.41769763
   Si    4.03615613   1.34538538   4.03615613
   Si    6.72692688   4.03615613   4.03615613
   Si    9.41769763   6.72692688   4.03615613
   Si   12.10846838   9.41769763   4.03615613
   Si    4.03615613   4.03615613   6.72692688
   Si    6.72692688   6.72692688   6.72692688
   Si    9.41769763   9.41769763   6.72692688
   Si   12.10846838  12.10846838   6.72692688
   Si    4.03615613   6.72692688   9.41769763
   Si    6.72692688   9.41769763   9.41769763
   Si    9.41769763  12.10846838   9.41769763
   Si   12.10846838  14.79923913   9.41769763
   Si    4.03615613   9.41769763  12.10846838
   Si    6.72692688  12.10846838  12.10846838
   Si    9.41769763  14.79923913  12.10846838
   Si   12.10846838  17.49000988  12.10846838
   Si    6.72692688   1.34538538   6.72692688
   Si    9.41769763   4.03615613   6.72692688
   Si   12.10846838   6.72692688   6.72692688
   Si   14.79923913   9.41769763   6.72692688
   Si    6.72692688   4.03615613   9.41769763
   Si    9.41769763   6.72692688   9.41769763
   Si   12.10846838   9.41769763   9.41769763
   Si   14.79923913  12.10846838   9.41769763
   Si    6.72692688   6.72692688  12.10846838
   Si    9.41769763   9.41769763  12.10846838
   Si   12.10846838  12.10846838  12.10846838
   Si   14.79923913  14.79923913  12.10846838
   Si    6.72692688   9.41769763  14.79923913
   Si    9.41769763  12.10846838  14.79923913
   Si   12.10846838  14.79923913  14.79923913
   Si   14.79923913  17.49000988  14.79923913
   Si    9.41769763   1.34538538   9.41769763
   Si   12.10846838   4.03615613   9.41769763
   Si   14.79923913   6.72692688   9.41769763
   Si   17.49000988   9.41769763   9.41769763
   Si    9.41769763   4.03615613  12.10846838
   Si   12.10846838   6.72692688  12.10846838
   Si   14.79923913   9.41769763  12.10846838
   Si   17.49000988  12.10846838  12.10846838
   Si    9.41769763   6.72692688  14.79923913
   Si   12.10846838   9.41769763  14.79923913
   Si   14.79923913  12.10846838  14.79923913
   Si   17.49000988  14.79923913  14.79923913
   Si    9.41769763   9.41769763  17.49000988
   Si   12.10846838  12.10846838  17.49000988
   Si   14.79923913  14.79923913  17.49000988
   Si   17.49000988  17.49000988  17.49000988
