&CONTROL
  calculation = 'scf'
  outdir = './out'
  prefix = 'si'
  pseudo_dir = './'
/
&SYSTEM
  ecutwfc = 60
  ibrav = 0
  nat = 2
  ntyp = 1
/
&ELECTRONS
    diagonalization='david'
    mixing_mode = 'plain'
    mixing_beta = 0.7
    conv_thr = 1.0d-7
/
ATOMIC_SPECIES
Si     28.0855 Si.pz-hgh.UPF
ATOMIC_POSITIONS crystal
Si           0.0000000000       0.0000000000       0.0000000000 
Si           0.2500000000       0.2500000000       0.2500000000 
K_POINTS automatic
10 10 10 0 0 0
CELL_PARAMETERS (angstrom)
   2.690770768   2.690770768   0.000000000
   0.000000000   2.690770768   2.690770768
   2.690770768   0.000000000   2.690770768
