 &control
  calculation = 'nscf'
  restart_mode = 'from_scratch'
  prefix = 'ZG-si'
  pseudo_dir = './'
  outdir = './out'
/
&system
  ibrav = 0
  nat =  128
  ntyp =    1
  ecutwfc =  120.00
  nbnd = 320
  nosym = .true.
/
&electrons
  diagonalization = 'david'
  mixing_mode= 'plain'
  mixing_beta = 0.70
  conv_thr =   0.1D-08
/
ATOMIC_SPECIES
   Si   28.085 Si.pz-hgh.UPF
K_POINTS crystal
2
0.000000 0.000000 0.000000 1
0.000000 1.680000 1.680000 1
CELL_PARAMETERS (angstrom)
     10.76308300     10.76308300      0.00000000
      0.00000000     10.76308300     10.76308300
     10.76308300      0.00000000     10.76308300
ATOMIC_POSITIONS (angstrom)
   Si       0.02060930     -0.00488830      0.06091445
   Si       2.74919450      2.72030745     -0.03394241
   Si       5.40149874      5.36279978     -0.05005598
   Si       8.00780006      8.10037834      0.02213184
   Si      -0.04504975      2.66532276      2.69901350
   Si       2.72540297      5.34200703      2.70256034
   Si       5.41867552      8.11263523      2.70739559
   Si       8.12429758     10.82269831      2.75746125
   Si      -0.03552868      5.35944216      5.30067520
   Si       2.65046694      8.09931119      5.31149127
   Si       5.39259498     10.79396197      5.38053898
   Si       7.98098299     13.47366973      5.44334576
   Si       0.04068745      8.11532765      8.07538849
   Si       2.71581524     10.76105183      8.03471449
   Si       5.40761064     13.50945639      8.06267289
   Si       8.05512128     16.23237110      7.96387082
   Si       2.59977602     -0.02408922      2.60751498
   Si       5.34851812      2.71878560      2.67570643
   Si       8.05128511      5.34685738      2.67131510
   Si      10.75094607      8.09230121      2.75718497
   Si       2.64844340      2.58164834      5.37105526
   Si       5.38118166      5.39963190      5.38578329
   Si       8.13661718      8.14541777      5.44174917
   Si      10.79268190     10.73690416      5.32568707
   Si       2.66925570      5.37703416      8.12505093
   Si       5.43953380      7.98816196      8.07150645
   Si       8.10488172     10.76189079      8.07605194
   Si      10.79945171     13.44516562      8.07833835
   Si       2.66827294      7.99534024     10.70684605
   Si       5.31268095     10.75634787     10.80017852
   Si       8.04662164     13.46415557     10.76712736
   Si      10.80170369     16.12995609     10.67437835
   Si       5.39890938      0.00963067      5.43405746
   Si       8.10261279      2.60551023      5.36030166
   Si      10.67090056      5.36127621      5.44618516
   Si      13.48061478      8.09422666      5.46672668
   Si       5.34814510      2.73963375      8.03136092
   Si       8.07374128      5.35314273      8.06650819
   Si      10.78885729      7.99442369      8.16350966
   Si      13.41129054     10.65802506      8.11329932
   Si       5.34262828      5.33374380     10.74869432
   Si       8.08490653      7.99099185     10.80497170
   Si      10.86071945     10.83636572     10.73132242
   Si      13.52191941     13.49410256     10.67730549
   Si       5.34784282      8.05206397     13.50156704
   Si       8.05755249     10.69873424     13.45248939
   Si      10.74556294     13.38963457     13.33758991
   Si      13.41527663     16.23663370     13.48759420
   Si       8.04654833      0.06243689      8.15039229
   Si      10.68361970      2.71656420      8.07557486
   Si      13.47484644      5.35155663      8.06292887
   Si      16.17059501      8.09389942      8.06444716
   Si       8.00868885      2.69982765     10.75478399
   Si      10.74918447      5.32548542     10.77652161
   Si      13.50948795      8.10447066     10.76794820
   Si      16.15299050     10.74579391     10.79450935
   Si       8.13121483      5.43817608     13.44335272
   Si      10.82217135      8.04494547     13.43653167
   Si      13.50068986     10.73846931     13.44189118
   Si      16.08982825     13.47867453     13.41920811
   Si       8.06400348      8.14133497     16.16485551
   Si      10.73322576     10.84542971     16.15801461
   Si      13.49636256     13.44630281     16.13029847
   Si      16.18101510     16.16511495     16.18959122
   Si       1.37155219      1.36411329      1.34369686
   Si       4.01609785      3.98852091      1.35504696
   Si       6.71850208      6.72443858      1.30894790
   Si       9.37884461      9.52532451      1.33028135
   Si       1.31809014      3.98613996      3.98416811
   Si       3.98771473      6.73738636      4.01891565
   Si       6.71863726      9.45474380      4.07358506
   Si       9.41414638     12.17566214      4.15239513
   Si       1.36306589      6.66999506      6.71242769
   Si       4.03599037      9.46488407      6.77510313
   Si       6.67116691     12.14179780      6.77863838
   Si       9.46237088     14.73869086      6.70927791
   Si       1.39937945      9.41398231      9.39507229
   Si       4.11082407     12.13321798      9.41409957
   Si       6.71264962     14.81773362      9.42894501
   Si       9.42423193     17.47531074      9.41362826
   Si       3.92392892      1.31417633      4.00557070
   Si       6.75625245      4.03099407      4.08221144
   Si       9.36278035      6.70356248      4.05339503
   Si      12.12931650      9.35521177      3.98586651
   Si       3.96498123      4.05649544      6.61260383
   Si       6.69889223      6.71000611      6.74544371
   Si       9.48591946      9.45460841      6.76725572
   Si      12.09158076     12.05151700      6.73598082
   Si       4.15061365      6.71122009      9.32003987
   Si       6.72154135      9.47872071      9.39235563
   Si       9.52287739     12.04788972      9.37176234
   Si      12.15249396     14.75798739      9.41582895
   Si       4.01010754      9.37436673     12.13106264
   Si       6.70948823     12.10544620     12.11786893
   Si       9.49678804     14.81211057     12.06446965
   Si      12.04776534     17.51073935     12.14539171
   Si       6.69925392      1.38137718      6.65728171
   Si       9.42778689      3.98904821      6.77018936
   Si      12.08759793      6.72040383      6.76102228
   Si      14.84335674      9.36786639      6.74158286
   Si       6.73498226      4.06323636      9.37826968
   Si       9.41217787      6.66264182      9.40050433
   Si      12.10823605      9.37118390      9.51516599
   Si      14.83969960     12.07852214      9.33392382
   Si       6.70508675      6.69262084     12.12724635
   Si       9.44628161      9.42942272     12.02070501
   Si      12.19918933     12.12066844     12.12615383
   Si      14.73085206     14.83782334     12.11322844
   Si       6.66222628      9.45998592     14.76888127
   Si       9.37625683     12.07831561     14.78734435
   Si      12.16121394     14.77457514     14.79749359
   Si      14.77652959     17.52669021     14.82076990
   Si       9.37833764      1.32676667      9.48463912
   Si      12.11968473      4.03252293      9.41020995
   Si      14.75746328      6.70468205      9.41363142
   Si      17.46930652      9.36277177      9.41524050
   Si       9.35577585      3.97234283     12.11504801
   Si      12.15227258      6.64234627     12.10524224
   Si      14.86009195      9.43805013     12.11840691
   Si      17.53271214     12.15827609     12.17256043
   Si       9.44887737      6.79398093     14.86517058
   Si      12.08121940      9.50115922     14.81695205
   Si      14.79670242     12.21313674     14.82737196
   Si      17.43793211     14.82221315     14.82291597
   Si       9.39895535      9.43026888     17.54061717
   Si      12.10194217     12.12599658     17.39135621
   Si      14.76896159     14.80333802     17.51828309
   Si      17.53309356     17.56341939     17.45390297
